SCIP Status        : solving was interrupted [time limit reached]
Total Time         :    3600.00
  solving          :    3600.00
  presolving       :       0.00 (included in solving)
  reading          :       0.00
  copying          :       0.20 (79 #copies) (minimal 0.00, maximal 0.00, average 0.00)
Original Problem   :
  Problem name     : ex8_5_5
  Variables        : 6 (0 binary, 0 integer, 0 implicit integer, 6 continuous)
  Constraints      : 5 initial, 5 maximal
  Objective        : minimize, 1 non-zeros (abs.min = 1, abs.max = 1)
Presolved Problem  :
  Problem name     : t_ex8_5_5
  Variables        : 28 (0 binary, 0 integer, 0 implicit integer, 28 continuous)
  Constraints      : 4 initial, 11 maximal
  Objective        : minimize, 1 non-zeros (abs.min = 1, abs.max = 1)
  Nonzeros         : 12 constraint, 0 clique table
Presolvers         :   ExecTime  SetupTime  Calls  FixedVars   AggrVars   ChgTypes  ChgBounds   AddHoles    DelCons    AddCons   ChgSides   ChgCoefs
  boundshift       :       0.00       0.00      0          0          0          0          0          0          0          0          0          0
  convertinttobin  :       0.00       0.00      0          0          0          0          0          0          0          0          0          0
  domcol           :       0.00       0.00      1          0          0          0          0          0          0          0          0          0
  dualagg          :       0.00       0.00      0          0          0          0          0          0          0          0          0          0
  dualcomp         :       0.00       0.00      1          0          0          0          0          0          0          0          0          0
  dualinfer        :       0.00       0.00      0          0          0          0          0          0          0          0          0          0
  dualsparsify     :       0.00       0.00      1          0          0          0          0          0          0          0          0          0
  gateextraction   :       0.00       0.00      0          0          0          0          0          0          0          0          0          0
  implics          :       0.00       0.00      2          0          0          0          0          0          0          0          0          0
  inttobinary      :       0.00       0.00      0          0          0          0          0          0          0          0          0          0
  qpkktref         :       0.00       0.00      0          0          0          0          0          0          0          0          0          0
  redvub           :       0.00       0.00      0          0          0          0          0          0          0          0          0          0
  sparsify         :       0.00       0.00      1          0          0          0          0          0          0          0          0          0
  stuffing         :       0.00       0.00      0          0          0          0          0          0          0          0          0          0
  trivial          :       0.00       0.00      4          0          0          0          0          0          0          0          0          0
  tworowbnd        :       0.00       0.00      0          0          0          0          0          0          0          0          0          0
  dualfix          :       0.00       0.00      4          0          0          0          0          0          0          0          0          0
  genvbounds       :       0.00       0.00      0          0          0          0          0          0          0          0          0          0
  probing          :       0.00       0.00      0          0          0          0          0          0          0          0          0          0
  pseudoobj        :       0.00       0.00      0          0          0          0          0          0          0          0          0          0
  symmetry         :       0.00       0.00      1          0          0          0          0          0          0          0          0          0
  vbounds          :       0.00       0.00      0          0          0          0          0          0          0          0          0          0
  linear           :       0.00       0.00      6          0          1          0          2          0          1          0          0          0
  nonlinear        :       0.00       0.00      8          0          0          0          6          0          0          0          0          0
  benders          :       0.00       0.00      0          0          0          0          0          0          0          0          0          0
  components       :       0.00       0.00      1          0          0          0          0          0          0          0          0          0
  root node        :          -          -      -          0          -          -        273          -          -          -          -          -
Constraints        :     Number  MaxNumber  #Separate #Propagate    #EnfoLP    #EnfoRelax  #EnfoPS    #Check   #ResProp    Cutoffs    DomReds       Cuts    Applied      Conss   Children
  benderslp        :          0          0          0          0   11747737          0      47446     102343          0          0          0          0          0          0          0
  integral         :          0          0          0          0   11747737          0          0     102343          0          0          0          0          0          0          0
  linear           :          1+         8          0    8280381    2324646          0      34359     102338          0       6880     307227          1          1          0          0
  nonlinear        :          3          3   12375533    8484849   11747737          0      47446     102312          0    1603587   50829900    3514910    3117453          0     985946
  benders          :          0          0          0          0    2447415          0      47446         89          0          0          0          0          0          0          0
  countsols        :          0          0          0          0    2447414          0      47446         89          0          0          0          0          0          0          0
  components       :          0          0          0          0          0          0          0          0          0          0          0          0          0          0          0
Constraint Timings :  TotalTime  SetupTime   Separate  Propagate     EnfoLP     EnfoPS     EnfoRelax   Check    ResProp    SB-Prop
  benderslp        :       1.55       0.00       0.00       0.00       1.54       0.01       0.00       0.00       0.00       0.00
  integral         :       1.49       0.00       0.00       0.00       1.49       0.00       0.00       0.01       0.00       0.00
  linear           :       5.38       0.00       0.00       4.65       0.70       0.02       0.00       0.01       0.00       0.00
  nonlinear        :     557.15       0.00     116.62     216.23     223.79       0.26       0.00       0.25       0.00       0.00
  benders          :       0.35       0.00       0.00       0.00       0.35       0.01       0.00       0.00       0.00       0.00
  countsols        :       0.43       0.00       0.00       0.00       0.42       0.01       0.00       0.00       0.00       0.00
  components       :       0.66       0.00       0.00       0.66       0.00       0.00       0.00       0.00       0.00       0.00
Propagators        : #Propagate   #ResProp    Cutoffs    DomReds
  dualfix          :          2          0          0          0
  genvbounds       :     405960          0          0         67
  nlobbt           :          0          0          0          0
  obbt             :          3          0          0          0
  probing          :          0          0          0          0
  pseudoobj        :   20240010          0        465        137
  redcost          :          0          0          0          0
  rootredcost      :          0          0          0          0
  symmetry         :          0          0          0          0
  vbounds          :          0          0          0          0
Propagator Timings :  TotalTime  SetupTime   Presolve  Propagate    ResProp    SB-Prop
  dualfix          :       0.00       0.00       0.00       0.00       0.00       0.00
  genvbounds       :       6.20       0.00       0.00       6.20       0.00       0.00
  nlobbt           :       0.00       0.00       0.00       0.00       0.00       0.00
  obbt             :       0.00       0.00       0.00       0.00       0.00       0.00
  probing          :       0.00       0.00       0.00       0.00       0.00       0.00
  pseudoobj        :       8.39       0.00       0.00       8.39       0.00       0.00
  redcost          :       4.37       0.00       0.00       4.37       0.00       0.00
  rootredcost      :       1.76       0.00       0.00       1.76       0.00       0.00
  symmetry         :       0.90       0.00       0.00       0.90       0.00       0.00
  vbounds          :       2.50       0.00       0.00       2.50       0.00       0.00
Conflict Analysis  :       Time      Calls    Success    DomReds  Conflicts   Literals    Reconvs ReconvLits   Dualrays   Nonzeros   LP Iters   (pool size: [--,--])
  propagation      :       0.00          0          0          -          0        0.0          0        0.0          -          -          -
  infeasible LP    :      12.04    1127265        621          -          0        0.0          0        0.0        618        3.2          0
  bound exceed. LP :       0.16      14497          0          -          0        0.0          0        0.0          0        0.0          0
  strong branching :       0.00          0          0          -          0        0.0          0        0.0          -          -          0
  pseudo solution  :       0.00          0          0          -          0        0.0          0        0.0          -          -          -
  applied globally :       0.00          -          -          0          0        0.0          -          -        615          -          -
  applied locally  :          -          -          -          3          0        0.0          -          -          3          -          -
Separators         :   ExecTime  SetupTime      Calls  RootCalls    Cutoffs    DomReds  FoundCuts ViaPoolAdd  DirectAdd    Applied ViaPoolApp  DirectApp      Conss
  cut pool         :       0.00          -          0          0          -          -          0          0          -          -          -          -          -    (maximal pool size:          0)
  aggregation      :       0.13       0.00          0          0          0          0          0          0          0          0          0          0          0
  > cmir           :          -          -          -          -          -          -          -          0          0          0          0          0          -
  > flowcover      :          -          -          -          -          -          -          -          0          0          0          0          0          -
  > knapsackcover  :          -          -          -          -          -          -          -          0          0          0          0          0          -
  cgmip            :       0.00       0.00          0          0          0          0          0          0          0          0          0          0          0
  clique           :       0.00       0.00          0          0          0          0          0          0          0          0          0          0          0
  closecuts        :       0.00       0.00          0          0          0          0          0          0          0          0          0          0          0
  convexproj       :       0.00       0.00          0          0          0          0          0          0          0          0          0          0          0
  disjunctive      :       0.00       0.00          0          0          0          0          0          0          0          0          0          0          0
  eccuts           :       0.00       0.00          0          0          0          0          0          0          0          0          0          0          0
  gauge            :       0.00       0.00          0          0          0          0          0          0          0          0          0          0          0
  gomory           :       0.28       0.00          0          0          0          0          0          0          0          0          0          0          0
  > gomorymi       :          -          -          -          -          -          -          -          0          0          0          0          0          -
  > strongcg       :          -          -          -          -          -          -          -          0          0          0          0          0          -
  impliedbounds    :       0.08       0.00          0          0          0          0          0          0          0          0          0          0          0
  interminor       :       0.00       0.00          0          0          0          0          0          0          0          0          0          0          0
  intobj           :       0.00       0.00          0          0          0          0          0          0          0          0          0          0          0
  mcf              :       0.00       0.00          0          0          0          0          0          0          0          0          0          0          0
  minor            :       5.03       0.00     502600          0          0          0         45          0         45         25          0         25          0
  mixing           :       0.13       0.00     503045          0          0          0          0          0          0          0          0          0          0
  oddcycle         :       0.00       0.00          0          0          0          0          0          0          0          0          0          0          0
  rapidlearning    :       0.00       0.00          0          0          0          0          0          0          0          0          0          0          0
  rlt              :       0.00       0.00          0          0          0          0          0          0          0          0          0          0          0
  zerohalf         :       0.12       0.00          0          0          0          0          0          0          0          0          0          0          0
Cutselectors       :   ExecTime  SetupTime      Calls  RootCalls   Selected     Forced   Filtered  RootSelec   RootForc   RootFilt 
  hybrid           :       1.47       0.00    1419374          0    1777206         10      89506          0          0          0
Pricers            :   ExecTime  SetupTime      Calls       Vars
  problem variables:       0.00          -          0          0
Branching Rules    :   ExecTime  SetupTime   BranchLP  BranchExt   BranchPS    Cutoffs    DomReds       Cuts      Conss   Children
  allfullstrong    :       0.00       0.00          0          0          0          0          0          0          0          0
  cloud            :       0.00       0.00          0          0          0          0          0          0          0          0
  distribution     :       0.00       0.00          0          0          0          0          0          0          0          0
  fullstrong       :       0.00       0.00          0          0          0          0          0          0          0          0
  inference        :       0.00       0.00          0          0          0          0          0          0          0          0
  leastinf         :       0.00       0.00          0          0          0          0          0          0          0          0
  lookahead        :       0.00       0.00          0          0          0          0          0          0          0          0
  mostinf          :       0.00       0.00          0          0          0          0          0          0          0          0
  multaggr         :       0.00       0.00          0          0          0          0          0          0          0          0
  nodereopt        :       0.00       0.00          0          0          0          0          0          0          0          0
  pscost           :      12.89       0.00          0    2494854          0          0          0          0          0    4989708
  random           :       0.00       0.00          0          0          0          0          0          0          0          0
  relpscost        :       0.00       0.00          0          0          0          0          0          0          0          0
  vanillafullstrong:       0.00       0.00          0          0          0          0          0          0          0          0
Primal Heuristics  :   ExecTime  SetupTime      Calls      Found       Best
  LP solutions     :       0.39          -          -          6          6
  relax solutions  :       0.00          -          -          0          0
  pseudo solutions :       0.00          -          -          0          0
  strong branching :       0.00          -          -          0          0
  actconsdiving    :       0.00       0.00          0          0          0
  adaptivediving   :       0.61       0.00      11370          0          0
  alns             :       0.81       0.00         79          0          0
  bound            :       0.00       0.00          0          0          0
  clique           :       0.00       0.00          0          0          0
  coefdiving       :       0.00       0.00          0          0          0
  completesol      :       0.00       0.00          0          0          0
  conflictdiving   :       0.57       0.00      13370          0          0
  crossover        :       0.15       0.00          0          0          0
  dins             :       0.00       0.00          0          0          0
  distributiondivin:       0.14       0.00          0          0          0
  dps              :       0.00       0.00          0          0          0
  dualval          :       0.00       0.00          0          0          0
  farkasdiving     :       0.13       0.00          0          0          0
  feaspump         :       0.18       0.00          0          0          0
  fixandinfer      :       0.00       0.00          0          0          0
  fracdiving       :       0.40       0.00      13000          0          0
  gins             :       0.13       0.00          0          0          0
  guideddiving     :       0.11       0.00          0          0          0
  indicator        :       1.71       0.00          0          0          0
  indicatordiving  :       0.00       0.00          0          0          0
  intdiving        :       0.00       0.00          0          0          0
  intshifting      :       0.06       0.00          0          0          0
  linesearchdiving :       0.32       0.00      13383          0          0
  localbranching   :       0.00       0.00          0          0          0
  locks            :       0.00       0.00          0          0          0
  lpface           :       0.86       0.00          0          0          0
  mpec             :       0.17       0.00          0          0          0
  multistart       :       0.09       0.00          1          1          1
  mutation         :       0.00       0.00          0          0          0
  nlpdiving        :       0.06       0.00          0          0          0
  objpscostdiving  :       0.18       0.00          0          0          0
  octane           :       0.00       0.00          0          0          0
  ofins            :       0.68       0.00          0          0          0
  oneopt           :       1.40       0.00          0          0          0
  padm             :       0.00       0.00          0          0          0
  proximity        :       0.00       0.00          0          0          0
  pscostdiving     :       0.11       0.00          0          0          0
  randrounding     :       0.13       0.00          0          0          0
  rens             :       0.93       0.00          0          0          0
  reoptsols        :       0.00       0.00          0          0          0
  repair           :       0.00       0.00          0          0          0
  rins             :       0.12       0.00          0          0          0
  rootsoldiving    :       0.13       0.00          0          0          0
  rounding         :       2.05       0.00          0          0          0
  shiftandpropagate:       0.00       0.00          0          0          0
  shifting         :       0.23       0.00          0          0          0
  simplerounding   :       2.13       0.00          0          0          0
  subnlp           :      25.77       0.00       4146         84          4
  trivial          :       0.00       0.00          2          0          0
  trivialnegation  :       0.00       0.00          0          0          0
  trustregion      :       0.00       0.00          0          0          0
  trysol           :       1.44       0.00          3          3          3
  twoopt           :       0.00       0.00          0          0          0
  undercover       :       0.00       0.00          0          0          0
  vbounds          :       0.00       0.00          0          0          0
  veclendiving     :       0.09       0.00          0          0          0
  zeroobj          :       0.00       0.00          0          0          0
  zirounding       :       0.96       0.00          0          0          0
  other solutions  :          -          -          -          0          -
Expressions        :   #IntEval  IntEvalTi   #RevProp  RevPropTi    DomReds    Cutoffs  #Estimate  EstimTime  Branching  #Simplify SimplifyTi Simplified
  entropy          :   17230166       4.24       1796       0.00         98          0    8693883       0.72          0          8       0.00          0
  log              :   17230168       2.56    9059712       2.19          0          0          0       0.00          0         12       0.00          0
  pow              :   40172166       6.38    8016775       2.71    2161238          0   14027245       1.78    1104376         50       0.00          0
  prod             :    8615146       3.12    7355214       6.85    4133313         10    1289939       0.81     482434         55       0.00         22
  sum              :   34460361      10.19    9885418       9.30    8299971     273577     813407       0.09          0         71       0.00         16
  val              :          0       0.00          0       0.00          0          0          0       0.00          0          0       0.00          0
  var              :   23005999       1.69          0       0.00          0          0          0       0.00          0        156       0.00          7
Nlhdlrs            :    Detects  DetectAll DetectTime   #IntEval  IntEvalTi   #RevProp  RevPropTi    DomReds    Cutoffs   #Enforce   EnfoTime       Cuts  Branching
  soc              :          0          0       0.00          0       0.00          0       0.00          0          0          0       0.00          0          0
  convex           :          3          3       0.00          0       0.00          0       0.00          0          0   53085420      35.71     805932          0
  concave          :          0          0       0.00          0       0.00          0       0.00          0          0          0       0.00          0          0
  signomial        :          5          5       0.00          0       0.00          0       0.00          0          0    1467769       0.50          3          0
  quotient         :          2          2       0.00          0       0.00          0       0.00          0          0          0       0.00          0          0
  quadratic        :          3         27       0.00   15987536      22.47   14087929      39.40    6526170      93933          0       0.00          0          0
  default          :         30        190       0.00  117707813      33.91   34318935      43.24   14594620     274655   24824463      33.90    2710290          0
  bilinear         :          7          7       0.00          0       0.00          0       0.00          0          0       2385       0.00          0          0
  perspective      :          0          0       0.00          0       0.00          0       0.00          0          0          0       0.00          0          0
LP                 :       Time      Calls Iterations  Iter/call   Iter/sec  Time-0-It Calls-0-It    ItLimit
  primal LP        :     100.02     636881       1170      29.25      11.70      99.93     636841
  dual LP          :    1690.66   14427656   11523034       2.36    6815.72     878.05    9537136
  lex dual LP      :       0.00          0          0       0.00          -
  barrier LP       :       0.00          0          0       0.00          -       0.00          0
  resolve instable :       0.04         34        227       6.68    6102.64
  diving/probing LP:       0.00          6         51       8.50          -
  strong branching :       0.00          0          0       0.00          -          -          -          0
    (at root node) :          -          0          0       0.00          -
  conflict analysis:       0.00          0          0       0.00          -
NLP relaxation     :
  solve time       :       0.00 (0 calls)
  convexity        :  nonconvex (1 linear rows, 0 convex ineq., 1 nonconvex ineq., 2 nonlinear eq. or two-sided ineq.)
NLP Solvers        :  #Problems  ProblemTi    #Solves  SolveTime      #Iter  Time/Iter      #Okay #TimeLimit #IterLimit #LObjLimit #Interrupt  #NumError #EvalError  #OutOfMem #LicenseEr #OtherTerm   #GlobOpt    #LocOpt  #Feasible #LocInfeas #GlobInfea #Unbounded   #Unknown
  ipopt            :          2       0.00       4149      23.40      35805       0.00       4119          0         30          0          0          0          0          0          0          0          0       4119         12          0          0          0         18
B&B Tree           :
  number of runs   :          1
  nodes            :    5823135 (2987827 internal, 2835308 leaves)
  feasible leaves  :          6
  infeas. leaves   :    2738197
  objective leaves :      97104
  nodes (total)    :    5823135 (2987827 internal, 2835308 leaves)
  nodes left       :     152477
  max depth        :         76
  max depth (total):         76
  backtracks       :    1179738 (20.3%)
  early backtracks :          0 (0.0%)
  nodes exc. ref.  :          0 (0.0%)
  delayed cutoffs  :          4
  repropagations   :        133 (0 domain reductions, 0 cutoffs)
  avg switch length:      10.37
  switching time   :     240.96
Root Node          :
  First LP value   :          -
  First LP Iters   :         14 (19444.44 Iter/sec)
  First LP Time    :       0.00
  Final Dual Bound :          -
  Final Root Iters :         16
  Root LP Estimate :                     -
Solution           :
  Solutions found  :         94 (14 improvements)
  First Solution   : -1.07533584692178e-02   (in run 1, after 1 nodes, 0.47 seconds, depth 0, found by <multistart>)
  Gap First Sol.   :   infinite
  Gap Last Sol.    :       3.11 %
  Primal Bound     : -1.07579516483298e-02   (in run 1, after 4577168 nodes, 2832.15 seconds, depth 58, found by <relaxation>)
  Dual Bound       : -1.09870134948746e-02
  Gap              :       2.13 %
Integrals          :      Total       Avg%
  primal-dual      :   40872.24      11.35
  primal-ref       :          -          - (not evaluated)
  dual-ref         :          -          - (not evaluated)
